
Log started (V11.0.0) Sun Apr 13 22:36:03 2008

Tried aggregator 1 time.
Reduced MIP has 520 rows, 10001 columns, and 20020 nonzeros.
Presolve time =    0.13 sec.
Clique table members: 500.
MIP emphasis: balance optimality and feasibility.
MIP search method: dynamic search.
Parallel mode: none, using 1 thread.
Root relaxation solution time =    0.31 sec.

        Nodes                                         Cuts/
   Node  Left     Objective  IInf  Best Integer     Best Node    ItCnt     Gap

*     0+    0                        25991.0000      130.9326      931   99.50%
*     0+    0                          140.0000      130.9326      931    6.48%
      0     0      131.0000    40      140.0000      Fract: 8      943    6.43%
*     0+    0                          136.0000      131.0000      943    3.68%
      0     0      131.0000    45      136.0000     Covers: 3      996    3.68%
      0     0      131.0000    40      136.0000     Covers: 1     1014    3.68%
      0     0      131.0000    43      136.0000     Covers: 1     1033    3.68%
*     0+    0                          134.0000      131.0000     1033    2.24%
*     0+    0                          133.0000      131.0000     1033    1.50%

Repeating presolve.
Tried aggregator 1 time.
MIP Presolve eliminated 5 rows and 7418 columns.
Aggregator did 22 substitutions.
Reduced MIP has 493 rows, 2561 columns, and 5140 nonzeros.
Tried aggregator 1 time.
Represolve time =    0.13 sec.
Clique table members: 473.
MIP emphasis: balance optimality and feasibility.
MIP search method: dynamic search.
Parallel mode: none, using 1 thread.
Root relaxation solution time =    0.06 sec.

        Nodes                                         Cuts/
   Node  Left     Objective  IInf  Best Integer     Best Node    ItCnt     Gap

      0     0      131.0000    36      133.0000      131.0000      496    1.50%
      0     2      131.0000    36      133.0000      131.0000      496    1.50%
    100    74      131.0000    39      133.0000      131.0000     5797    1.50%
    200   142      132.0000    34      133.0000      131.0000    11491    1.50%
    300   202      132.0000    32      133.0000      131.0000    19962    1.50%
    400   265      132.0000    41      133.0000      131.0000    27518    1.50%
*   499+    0                          132.0000      132.0000    33540    0.00%

Cover cuts applied:  43
Mixed integer rounding cuts applied:  2
Zero-half cuts applied:  1

Solution pool: 6 solutions saved.

MIP - Integer optimal solution:  Objective = 1.3200000000e+002
Solution time =   14.03 sec.  Iterations = 33540  Nodes = 499


Incumbent solution
Variable Name           Solution Value
Cmax                        132.000000
X_1_15                        1.000000
X_2_14                        1.000000
X_3_10                        1.000000
X_4_11                        1.000000
X_5_3                         1.000000
X_6_3                         1.000000
X_7_4                         1.000000
X_8_14                        1.000000
X_9_15                        1.000000
X_10_19                       1.000000
X_11_16                       1.000000
X_12_17                       1.000000
X_13_7                        1.000000
X_14_17                       1.000000
X_15_14                       1.000000
X_16_19                       1.000000
X_17_7                        1.000000
X_18_10                       1.000000
X_19_5                        1.000000
X_20_15                       1.000000
X_21_13                       1.000000
X_22_12                       1.000000
X_23_12                       1.000000
X_24_17                       1.000000
X_25_2                        1.000000
X_26_19                       1.000000
X_27_4                        1.000000
X_28_3                        1.000000
X_29_18                       1.000000
X_30_9                        1.000000
X_31_4                        1.000000
X_32_15                       1.000000
X_33_20                       1.000000
X_34_16                       1.000000
X_35_16                       1.000000
X_36_18                       1.000000
X_37_9                        1.000000
X_38_5                        1.000000
X_39_8                        1.000000
X_40_4                        1.000000
X_41_11                       1.000000
X_42_15                       1.000000
X_43_1                        1.000000
X_44_11                       1.000000
X_45_16                       1.000000
X_46_1                        1.000000
X_47_15                       1.000000
X_48_2                        1.000000
X_49_9                        1.000000
X_50_19                       1.000000
X_51_6                        1.000000
X_52_19                       1.000000
X_53_3                        1.000000
X_54_14                       1.000000
X_55_20                       1.000000
X_56_12                       1.000000
X_57_16                       1.000000
X_58_5                        1.000000
X_59_9                        1.000000
X_60_17                       1.000000
X_61_13                       1.000000
X_62_19                       1.000000
X_63_15                       1.000000
X_64_15                       1.000000
X_65_14                       1.000000
X_66_3                        1.000000
X_67_12                       1.000000
X_68_5                        1.000000
X_69_18                       1.000000
X_70_4                        1.000000
X_71_14                       1.000000
X_72_16                       1.000000
X_73_16                       1.000000
X_74_5                        1.000000
X_75_3                        1.000000
X_76_7                        1.000000
X_77_9                        1.000000
X_78_18                       1.000000
X_79_1                        1.000000
X_80_10                       1.000000
X_81_14                       1.000000
X_82_14                       1.000000
X_83_5                        1.000000
X_84_2                        1.000000
X_85_14                       1.000000
X_86_9                        1.000000
X_87_17                       1.000000
X_88_6                        1.000000
X_89_18                       1.000000
X_90_14                       1.000000
X_91_13                       1.000000
X_92_3                        1.000000
X_93_11                       1.000000
X_94_6                        1.000000
X_95_1                        1.000000
X_96_4                        1.000000
X_97_17                       1.000000
X_98_11                       1.000000
X_99_14                       1.000000
X_100_19                      1.000000
X_101_7                       1.000000
X_102_2                       1.000000
X_103_16                      1.000000
X_104_16                      1.000000
X_105_12                      1.000000
X_106_2                       1.000000
X_107_8                       1.000000
X_108_18                      1.000000
X_109_12                      1.000000
X_110_17                      1.000000
X_111_20                      1.000000
X_112_17                      1.000000
X_113_13                      1.000000
X_114_1                       1.000000
X_115_13                      1.000000
X_116_12                      1.000000
X_117_8                       1.000000
X_118_15                      1.000000
X_119_17                      1.000000
X_120_17                      1.000000
X_121_1                       1.000000
X_122_11                      1.000000
X_123_15                      1.000000
X_124_8                       1.000000
X_125_8                       1.000000
X_126_10                      1.000000
X_127_13                      1.000000
X_128_6                       1.000000
X_129_17                      1.000000
X_130_3                       1.000000
X_131_11                      1.000000
X_132_1                       1.000000
X_133_18                      1.000000
X_134_10                      1.000000
X_135_6                       1.000000
X_136_18                      1.000000
X_137_20                      1.000000
X_138_6                       1.000000
X_139_15                      1.000000
X_140_9                       1.000000
X_141_18                      1.000000
X_142_19                      1.000000
X_143_4                       1.000000
X_144_19                      1.000000
X_145_9                       1.000000
X_146_2                       1.000000
X_147_3                       1.000000
X_148_17                      1.000000
X_149_12                      1.000000
X_150_8                       1.000000
X_151_15                      1.000000
X_152_20                      1.000000
X_153_18                      1.000000
X_154_8                       1.000000
X_155_13                      1.000000
X_156_6                       1.000000
X_157_3                       1.000000
X_158_16                      1.000000
X_159_1                       1.000000
X_160_14                      1.000000
X_161_17                      1.000000
X_162_14                      1.000000
X_163_11                      1.000000
X_164_20                      1.000000
X_165_1                       1.000000
X_166_9                       1.000000
X_167_19                      1.000000
X_168_11                      1.000000
X_169_20                      1.000000
X_170_14                      1.000000
X_171_1                       1.000000
X_172_5                       1.000000
X_173_3                       1.000000
X_174_4                       1.000000
X_175_10                      1.000000
X_176_11                      1.000000
X_177_3                       1.000000
X_178_6                       1.000000
X_179_8                       1.000000
X_180_3                       1.000000
X_181_16                      1.000000
X_182_3                       1.000000
X_183_14                      1.000000
X_184_7                       1.000000
X_185_17                      1.000000
X_186_1                       1.000000
X_187_8                       1.000000
X_188_7                       1.000000
X_189_13                      1.000000
X_190_9                       1.000000
X_191_8                       1.000000
X_192_17                      1.000000
X_193_2                       1.000000
X_194_3                       1.000000
X_195_5                       1.000000
X_196_2                       1.000000
X_197_7                       1.000000
X_198_15                      1.000000
X_199_10                      1.000000
X_200_18                      1.000000
X_201_15                      1.000000
X_202_17                      1.000000
X_203_14                      1.000000
X_204_18                      1.000000
X_205_2                       1.000000
X_206_5                       1.000000
X_207_16                      1.000000
X_208_20                      1.000000
X_209_18                      1.000000
X_210_8                       1.000000
X_211_19                      1.000000
X_212_14                      1.000000
X_213_11                      1.000000
X_214_5                       1.000000
X_215_11                      1.000000
X_216_5                       1.000000
X_217_1                       1.000000
X_218_2                       1.000000
X_219_13                      1.000000
X_220_16                      1.000000
X_221_18                      1.000000
X_222_13                      1.000000
X_223_5                       1.000000
X_224_1                       1.000000
X_225_18                      1.000000
X_226_9                       1.000000
X_227_2                       1.000000
X_228_19                      1.000000
X_229_17                      1.000000
X_230_12                      1.000000
X_231_15                      1.000000
X_232_5                       1.000000
X_233_10                      1.000000
X_234_15                      1.000000
X_235_9                       1.000000
X_236_17                      1.000000
X_237_6                       1.000000
X_238_12                      1.000000
X_239_3                       1.000000
X_240_3                       1.000000
X_241_14                      1.000000
X_242_2                       1.000000
X_243_11                      1.000000
X_244_18                      1.000000
X_245_12                      1.000000
X_246_6                       1.000000
X_247_10                      1.000000
X_248_8                       1.000000
X_249_18                      1.000000
X_250_11                      1.000000
X_251_10                      1.000000
X_252_13                      1.000000
X_253_6                       1.000000
X_254_19                      1.000000
X_255_7                       1.000000
X_256_6                       1.000000
X_257_7                       1.000000
X_258_5                       1.000000
X_259_5                       1.000000
X_260_3                       1.000000
X_261_18                      1.000000
X_262_8                       1.000000
X_263_18                      1.000000
X_264_1                       1.000000
X_265_15                      1.000000
X_266_15                      1.000000
X_267_16                      1.000000
X_268_5                       1.000000
X_269_9                       1.000000
X_270_12                      1.000000
X_271_4                       1.000000
X_272_20                      1.000000
X_273_1                       1.000000
X_274_16                      1.000000
X_275_1                       1.000000
X_276_2                       1.000000
X_277_6                       1.000000
X_278_18                      1.000000
X_279_17                      1.000000
X_280_15                      1.000000
X_281_6                       1.000000
X_282_17                      1.000000
X_283_6                       1.000000
X_284_4                       1.000000
X_285_8                       1.000000
X_286_11                      1.000000
X_287_11                      1.000000
X_288_8                       1.000000
X_289_20                      1.000000
X_290_4                       1.000000
X_291_16                      1.000000
X_292_3                       1.000000
X_293_3                       1.000000
X_294_18                      1.000000
X_295_14                      1.000000
X_296_17                      1.000000
X_297_4                       1.000000
X_298_11                      1.000000
X_299_20                      1.000000
X_300_12                      1.000000
X_301_11                      1.000000
X_302_14                      1.000000
X_303_20                      1.000000
X_304_19                      1.000000
X_305_5                       1.000000
X_306_5                       1.000000
X_307_17                      1.000000
X_308_18                      1.000000
X_309_12                      1.000000
X_310_8                       1.000000
X_311_9                       1.000000
X_312_6                       1.000000
X_313_6                       1.000000
X_314_19                      1.000000
X_315_10                      1.000000
X_316_1                       1.000000
X_317_13                      1.000000
X_318_5                       1.000000
X_319_3                       1.000000
X_320_2                       1.000000
X_321_11                      1.000000
X_322_10                      1.000000
X_323_19                      1.000000
X_324_16                      1.000000
X_325_16                      1.000000
X_326_7                       1.000000
X_327_8                       1.000000
X_328_7                       1.000000
X_329_14                      1.000000
X_330_10                      1.000000
X_331_8                       1.000000
X_332_10                      1.000000
X_333_10                      1.000000
X_334_14                      1.000000
X_335_10                      1.000000
X_336_5                       1.000000
X_337_5                       1.000000
X_338_18                      1.000000
X_339_15                      1.000000
X_340_13                      1.000000
X_341_4                       1.000000
X_342_6                       1.000000
X_343_1                       1.000000
X_344_10                      1.000000
X_345_14                      1.000000
X_346_5                       1.000000
X_347_5                       1.000000
X_348_7                       1.000000
X_349_15                      1.000000
X_350_16                      1.000000
X_351_12                      1.000000
X_352_12                      1.000000
X_353_11                      1.000000
X_354_10                      1.000000
X_355_9                       1.000000
X_356_7                       1.000000
X_357_6                       1.000000
X_358_13                      1.000000
X_359_9                       1.000000
X_360_14                      1.000000
X_361_7                       1.000000
X_362_10                      1.000000
X_363_3                       1.000000
X_364_16                      1.000000
X_365_6                       1.000000
X_366_13                      1.000000
X_367_1                       1.000000
X_368_17                      1.000000
X_369_11                      1.000000
X_370_18                      1.000000
X_371_15                      1.000000
X_372_7                       1.000000
X_373_3                       1.000000
X_374_7                       1.000000
X_375_1                       1.000000
X_376_10                      1.000000
X_377_16                      1.000000
X_378_1                       1.000000
X_379_4                       1.000000
X_380_6                       1.000000
X_381_14                      1.000000
X_382_12                      1.000000
X_383_12                      1.000000
X_384_15                      1.000000
X_385_13                      1.000000
X_386_5                       1.000000
X_387_11                      1.000000
X_388_15                      1.000000
X_389_17                      1.000000
X_390_18                      1.000000
X_391_17                      1.000000
X_392_2                       1.000000
X_393_15                      1.000000
X_394_7                       1.000000
X_395_9                       1.000000
X_396_7                       1.000000
X_397_1                       1.000000
X_398_11                      1.000000
X_399_11                      1.000000
X_400_13                      1.000000
X_401_9                       1.000000
X_402_7                       1.000000
X_403_19                      1.000000
X_404_9                       1.000000
X_405_16                      1.000000
X_406_11                      1.000000
X_407_19                      1.000000
X_408_1                       1.000000
X_409_8                       1.000000
X_410_15                      1.000000
X_411_12                      1.000000
X_412_14                      1.000000
X_413_12                      1.000000
X_414_1                       1.000000
X_415_8                       1.000000
X_416_10                      1.000000
X_417_19                      1.000000
X_418_11                      1.000000
X_419_6                       1.000000
X_420_17                      1.000000
X_421_7                       1.000000
X_422_6                       1.000000
X_423_4                       1.000000
X_424_9                       1.000000
X_425_7                       1.000000
X_426_15                      1.000000
X_427_10                      1.000000
X_428_8                       1.000000
X_429_4                       1.000000
X_430_18                      1.000000
X_431_4                       1.000000
X_432_10                      1.000000
X_433_3                       1.000000
X_434_6                       1.000000
X_435_18                      1.000000
X_436_6                       1.000000
X_437_1                       1.000000
X_438_16                      1.000000
X_439_13                      1.000000
X_440_6                       1.000000
X_441_5                       1.000000
X_442_3                       1.000000
X_443_9                       1.000000
X_444_8                       1.000000
X_445_20                      1.000000
X_446_20                      1.000000
X_447_17                      1.000000
X_448_10                      1.000000
X_449_17                      1.000000
X_450_12                      1.000000
X_451_20                      1.000000
X_452_20                      1.000000
X_453_14                      1.000000
X_454_11                      1.000000
X_455_18                      1.000000
X_456_18                      1.000000
X_457_9                       1.000000
X_458_10                      1.000000
X_459_19                      1.000000
X_460_4                       1.000000
X_461_2                       1.000000
X_462_20                      1.000000
X_463_18                      1.000000
X_464_10                      1.000000
X_465_12                      1.000000
X_466_17                      1.000000
X_467_19                      1.000000
X_468_13                      1.000000
X_469_16                      1.000000
X_470_20                      1.000000
X_471_12                      1.000000
X_472_16                      1.000000
X_473_7                       1.000000
X_474_18                      1.000000
X_475_10                      1.000000
X_476_13                      1.000000
X_477_10                      1.000000
X_478_18                      1.000000
X_479_16                      1.000000
X_480_15                      1.000000
X_481_4                       1.000000
X_482_20                      1.000000
X_483_1                       1.000000
X_484_10                      1.000000
X_485_4                       1.000000
X_486_7                       1.000000
X_487_1                       1.000000
X_488_14                      1.000000
X_489_2                       1.000000
X_490_13                      1.000000
X_491_10                      1.000000
X_492_4                       1.000000
X_493_4                       1.000000
X_494_20                      1.000000
X_495_4                       1.000000
X_496_16                      1.000000
X_497_2                       1.000000
X_498_13                      1.000000
X_499_7                       1.000000
X_500_14                      1.000000
All other variables in the range 1-10001 are 0.
